
  22    4
  10   10   10   10

   0   0   0   0   0   7 2 3 4 5 7 9 15 
   4  10  10  10  10   4 12 11 10 8 
   4  10  10  10  10   3 11 10 6 
   6  10  10  10  10   6 20 19 18 17 13 12 
   1  10  10  10  10   5 21 20 18 17 16 
   5  10  10  10  10   4 19 18 17 12 
   6  10  10  10  10   4 19 18 17 16 
   5  10  10  10  10   3 20 18 14 
   3  10  10  10  10   3 17 13 12 
   7  10  10  10  10   3 20 17 16 
   5  10  10  10  10   2 19 16 
   2  10  10  10  10   1 16 
   5  10  10  10  10   1 16 
   2  10  10  10  10   1 16 
   5  10  10  10  10   1 16 
   1  10  10  10  10   1 22
   5  10  10  10  10   1 22
   6  10  10  10  10   1 22
  10  10  10  10  10   1 22
   5  10  10  10  10   1 22
   5  10  10  10  10   1 22
   0   0   0   0   0   0 
